11
0 39 37 86 35 75 20 46 25 69 18 
98 0 94 32 95 40 79 17 34 85 50 
97 92 0 93 22 73 26 41 96 15 35 
46 31 83 0 91 59 42 97 93 50 59 
37 28 87 70 0 36 97 72 22 85 14 
8 43 77 77 42 0 69 50 2 89 52 
18 3 10 97 2 67 0 81 75 44 41 
16 73 66 90 64 23 88 0 24 77 47 
13 24 4 91 81 98 87 28 0 69 47 
89 85 79 20 19 55 56 77 45 0 83 
35 60 17 71 100 56 97 73 21 56 0 
